c status 46 1469387296915
c status 45 1469387296915
c status 44 1469387296925
s td 12 44 56
b 1 2 8 7 22 33 30 56 4 17 19 29 6 1 3 5 13 46 9 20 53 54 55 16 18 32 24 31 35
b 2 8 7 22 33 30 56 4 17 19 29 6 15 25 27 40 1 3 5 13 46 41 50 9 20 44 53 54 55 16 18 32 28 12 24 31 48 35
b 3 7 22 33 30 56 4 17 19 29 6 15 25 27 40 1 3 5 13 46 41 43 39 47 50 9 20 44 53 54 55 16 18 32 11 26 28 12 24 31 48 35
b 4 22 33 30 56 4 17 19 29 6 15 25 27 40 1 3 5 13 46 41 43 39 47 50 9 20 44 53 23 54 55 45 16 18 32 11 26 28 12 24 31 49 48 35
b 5 33 30 56 4 17 19 29 38 6 15 25 27 40 1 3 5 13 46 41 43 39 47 50 52 9 20 44 53 23 54 55 45 16 18 32 11 26 28 12 24 31 49 48 35
b 6 30 56 4 17 19 29 38 6 15 25 27 40 1 3 5 13 46 41 43 39 47 50 52 9 20 44 53 34 23 54 55 45 16 18 32 11 26 28 12 24 31 49 48 35
b 7 14 10 21 37 36 42 51 4 19 38 15 27 1 3 5 13 46 43 9 44 53 23 11 26 28 12 49 35
b 8 10 21 37 36 42 51 4 19 38 6 15 25 27 40 1 3 5 13 46 43 39 9 44 53 34 23 54 55 45 16 11 26 28 12 24 49 35
b 9 21 37 36 42 51 4 17 19 38 6 15 25 27 40 1 3 5 13 46 41 43 39 52 9 20 44 53 34 23 54 55 45 16 18 11 26 28 12 24 49 35
b 10 37 36 42 51 4 17 19 29 38 6 15 25 27 40 1 3 5 13 46 41 43 39 52 9 20 44 53 34 23 54 55 45 16 18 32 11 26 28 12 24 49 48 35
b 11 36 42 51 4 17 19 29 38 6 15 25 27 40 1 3 5 13 46 41 43 39 47 52 9 20 44 53 34 23 54 55 45 16 18 32 11 26 28 12 24 31 49 48 35
b 12 42 51 4 17 19 29 38 6 15 25 27 40 1 3 5 13 46 41 43 39 47 50 52 9 20 44 53 34 23 54 55 45 16 18 32 11 26 28 12 24 31 49 48 35
1 2
2 3
3 4
4 5
5 6
6 12
12 11
11 10
10 9
9 8
8 7
